784 1568
1 2 1
1 29 1
2 3 5
2 30 3
3 4 3
3 31 1
4 5 2
4 32 3
5 6 5
5 33 4
6 7 4
6 34 4
7 8 4
7 35 5
8 9 1
8 36 5
9 10 2
9 37 5
10 11 2
10 38 4
11 12 4
11 39 3
12 13 3
12 40 1
13 14 5
13 41 2
14 15 4
14 42 1
15 16 5
15 43 2
16 17 3
16 44 5
17 18 2
17 45 1
18 19 2
18 46 1
19 20 5
19 47 5
20 21 3
20 48 4
21 22 3
21 49 1
22 23 2
22 50 1
23 24 4
23 51 2
24 25 3
24 52 2
25 26 5
25 53 4
26 27 4
26 54 5
27 28 5
27 55 5
28 56 4
29 30 3
29 57 4
30 31 2
30 58 2
31 32 2
31 59 3
32 33 4
32 60 3
33 34 4
33 61 3
34 35 4
34 62 2
35 36 3
35 63 5
36 37 2
36 64 1
37 38 2
37 65 4
38 39 4
38 66 5
39 40 5
39 67 2
40 41 4
40 68 5
41 42 3
41 69 1
42 43 2
42 70 5
43 44 5
43 71 3
44 45 1
44 72 1
45 46 1
45 73 1
46 47 5
46 74 2
47 48 5
47 75 5
48 49 4
48 76 5
49 50 1
49 77 3
50 51 1
50 78 4
51 52 5
51 79 1
52 53 4
52 80 1
53 54 3
53 81 4
54 55 3
54 82 2
55 56 3
55 83 2
56 84 4
57 58 4
57 85 2
58 59 5
58 86 1
59 60 3
59 87 2
60 61 5
60 88 2
61 62 2
61 89 1
62 63 2
62 90 1
63 64 3
63 91 3
64 65 1
64 92 2
65 66 3
65 93 1
66 67 4
66 94 3
67 68 4
67 95 2
68 69 3
68 96 4
69 70 1
69 97 1
70 71 4
70 98 2
71 72 2
71 99 4
72 73 1
72 100 5
73 74 4
73 101 3
74 75 4
74 102 3
75 76 5
75 103 2
76 77 3
76 104 3
77 78 4
77 105 2
78 79 4
78 106 2
79 80 4
79 107 5
80 81 5
80 108 1
81 82 1
81 109 1
82 83 5
82 110 3
83 84 5
83 111 5
84 112 3
85 86 5
85 113 4
86 87 1
86 114 1
87 88 5
87 115 4
88 89 3
88 116 3
89 90 4
89 117 3
90 91 4
90 118 1
91 92 4
91 119 3
92 93 1
92 120 3
93 94 4
93 121 3
94 95 2
94 122 5
95 96 1
95 123 2
96 97 2
96 124 4
97 98 1
97 125 1
98 99 2
98 126 2
99 100 2
99 127 5
100 101 1
100 128 3
101 102 2
101 129 2
102 103 2
102 130 2
103 104 5
103 131 3
104 105 2
104 132 3
105 106 5
105 133 5
106 107 3
106 134 5
107 108 5
107 135 2
108 109 1
108 136 4
109 110 5
109 137 5
110 111 3
110 138 2
111 112 4
111 139 2
112 140 5
113 114 3
113 141 2
114 115 2
114 142 4
115 116 3
115 143 5
116 117 1
116 144 5
117 118 2
117 145 4
118 119 2
118 146 1
119 120 1
119 147 4
120 121 2
120 148 3
121 122 4
121 149 5
122 123 3
122 150 5
123 124 2
123 151 1
124 125 1
124 152 1
125 126 4
125 153 4
126 127 3
126 154 5
127 128 3
127 155 1
128 129 1
128 156 4
129 130 4
129 157 1
130 131 3
130 158 2
131 132 1
131 159 3
132 133 4
132 160 5
133 134 5
133 161 3
134 135 2
134 162 4
135 136 1
135 163 3
136 137 4
136 164 2
137 138 4
137 165 5
138 139 3
138 166 4
139 140 4
139 167 1
140 168 2
141 142 5
141 169 5
142 143 5
142 170 4
143 144 3
143 171 5
144 145 2
144 172 2
145 146 4
145 173 3
146 147 4
146 174 4
147 148 4
147 175 2
148 149 3
148 176 2
149 150 5
149 177 2
150 151 5
150 178 4
151 152 1
151 179 2
152 153 2
152 180 1
153 154 2
153 181 1
154 155 3
154 182 1
155 156 4
155 183 5
156 157 5
156 184 4
157 158 4
157 185 4
158 159 2
158 186 2
159 160 2
159 187 5
160 161 1
160 188 1
161 162 2
161 189 5
162 163 1
162 190 5
163 164 3
163 191 3
164 165 5
164 192 4
165 166 3
165 193 3
166 167 3
166 194 1
167 168 2
167 195 5
168 196 5
169 170 5
169 197 2
170 171 4
170 198 2
171 172 1
171 199 1
172 173 2
172 200 2
173 174 1
173 201 5
174 175 2
174 202 4
175 176 1
175 203 2
176 177 4
176 204 1
177 178 3
177 205 3
178 179 4
178 206 5
179 180 3
179 207 3
180 181 4
180 208 1
181 182 4
181 209 4
182 183 3
182 210 5
183 184 4
183 211 5
184 185 1
184 212 3
185 186 4
185 213 2
186 187 3
186 214 3
187 188 2
187 215 4
188 189 2
188 216 5
189 190 1
189 217 2
190 191 5
190 218 5
191 192 3
191 219 5
192 193 2
192 220 4
193 194 3
193 221 2
194 195 3
194 222 5
195 196 4
195 223 4
196 224 1
197 198 4
197 225 1
198 199 4
198 226 4
199 200 1
199 227 3
200 201 3
200 228 5
201 202 2
201 229 1
202 203 5
202 230 2
203 204 5
203 231 5
204 205 3
204 232 1
205 206 5
205 233 1
206 207 1
206 234 3
207 208 4
207 235 1
208 209 1
208 236 5
209 210 2
209 237 4
210 211 4
210 238 4
211 212 1
211 239 3
212 213 2
212 240 3
213 214 4
213 241 3
214 215 2
214 242 5
215 216 4
215 243 4
216 217 4
216 244 1
217 218 1
217 245 1
218 219 2
218 246 1
219 220 5
219 247 4
220 221 3
220 248 5
221 222 1
221 249 2
222 223 5
222 250 5
223 224 2
223 251 5
224 252 1
225 226 2
225 253 1
226 227 1
226 254 4
227 228 5
227 255 1
228 229 2
228 256 4
229 230 1
229 257 4
230 231 1
230 258 1
231 232 5
231 259 4
232 233 1
232 260 1
233 234 4
233 261 5
234 235 1
234 262 5
235 236 2
235 263 1
236 237 2
236 264 4
237 238 3
237 265 1
238 239 1
238 266 1
239 240 4
239 267 5
240 241 1
240 268 2
241 242 2
241 269 3
242 243 5
242 270 1
243 244 2
243 271 3
244 245 1
244 272 4
245 246 1
245 273 3
246 247 4
246 274 5
247 248 5
247 275 3
248 249 2
248 276 4
249 250 4
249 277 2
250 251 4
250 278 4
251 252 2
251 279 5
252 280 3
253 254 3
253 281 1
254 255 4
254 282 5
255 256 1
255 283 2
256 257 3
256 284 4
257 258 5
257 285 5
258 259 1
258 286 5
259 260 1
259 287 1
260 261 1
260 288 2
261 262 3
261 289 4
262 263 1
262 290 5
263 264 1
263 291 1
264 265 4
264 292 1
265 266 2
265 293 3
266 267 2
266 294 2
267 268 2
267 295 3
268 269 1
268 296 2
269 270 2
269 297 1
270 271 3
270 298 4
271 272 5
271 299 1
272 273 1
272 300 2
273 274 1
273 301 5
274 275 5
274 302 4
275 276 5
275 303 5
276 277 3
276 304 3
277 278 4
277 305 4
278 279 5
278 306 5
279 280 4
279 307 3
280 308 1
281 282 3
281 309 3
282 283 2
282 310 2
283 284 5
283 311 4
284 285 1
284 312 4
285 286 4
285 313 1
286 287 3
286 314 3
287 288 3
287 315 4
288 289 5
288 316 4
289 290 1
289 317 2
290 291 1
290 318 3
291 292 2
291 319 1
292 293 4
292 320 4
293 294 5
293 321 1
294 295 2
294 322 1
295 296 4
295 323 2
296 297 1
296 324 1
297 298 1
297 325 1
298 299 3
298 326 5
299 300 5
299 327 4
300 301 5
300 328 3
301 302 3
301 329 3
302 303 3
302 330 5
303 304 2
303 331 3
304 305 4
304 332 2
305 306 5
305 333 2
306 307 1
306 334 4
307 308 1
307 335 5
308 336 4
309 310 1
309 337 4
310 311 2
310 338 4
311 312 4
311 339 3
312 313 1
312 340 1
313 314 2
313 341 1
314 315 2
314 342 4
315 316 5
315 343 1
316 317 2
316 344 3
317 318 1
317 345 4
318 319 4
318 346 1
319 320 3
319 347 1
320 321 5
320 348 4
321 322 1
321 349 3
322 323 5
322 350 3
323 324 4
323 351 3
324 325 1
324 352 2
325 326 5
325 353 4
326 327 4
326 354 1
327 328 1
327 355 2
328 329 3
328 356 4
329 330 2
329 357 4
330 331 4
330 358 4
331 332 5
331 359 1
332 333 4
332 360 3
333 334 2
333 361 5
334 335 4
334 362 2
335 336 4
335 363 4
336 364 5
337 338 2
337 365 2
338 339 1
338 366 4
339 340 3
339 367 3
340 341 5
340 368 5
341 342 2
341 369 4
342 343 3
342 370 5
343 344 1
343 371 3
344 345 3
344 372 4
345 346 1
345 373 1
346 347 2
346 374 5
347 348 5
347 375 3
348 349 3
348 376 3
349 350 3
349 377 5
350 351 2
350 378 3
351 352 4
351 379 4
352 353 2
352 380 5
353 354 2
353 381 3
354 355 5
354 382 1
355 356 3
355 383 3
356 357 2
356 384 4
357 358 3
357 385 1
358 359 3
358 386 4
359 360 3
359 387 1
360 361 2
360 388 5
361 362 3
361 389 3
362 363 2
362 390 4
363 364 3
363 391 5
364 392 3
365 366 1
365 393 3
366 367 5
366 394 2
367 368 5
367 395 3
368 369 2
368 396 5
369 370 5
369 397 2
370 371 4
370 398 1
371 372 1
371 399 4
372 373 2
372 400 3
373 374 5
373 401 2
374 375 1
374 402 4
375 376 4
375 403 5
376 377 5
376 404 3
377 378 4
377 405 3
378 379 4
378 406 3
379 380 3
379 407 1
380 381 3
380 408 4
381 382 5
381 409 4
382 383 2
382 410 3
383 384 1
383 411 3
384 385 1
384 412 4
385 386 3
385 413 2
386 387 3
386 414 1
387 388 2
387 415 2
388 389 4
388 416 4
389 390 2
389 417 4
390 391 1
390 418 4
391 392 1
391 419 4
392 420 4
393 394 5
393 421 4
394 395 5
394 422 4
395 396 4
395 423 4
396 397 1
396 424 2
397 398 4
397 425 5
398 399 5
398 426 5
399 400 5
399 427 2
400 401 5
400 428 1
401 402 1
401 429 3
402 403 5
402 430 3
403 404 1
403 431 1
404 405 5
404 432 3
405 406 3
405 433 3
406 407 4
406 434 2
407 408 4
407 435 2
408 409 1
408 436 4
409 410 4
409 437 2
410 411 5
410 438 2
411 412 5
411 439 3
412 413 5
412 440 5
413 414 2
413 441 2
414 415 5
414 442 4
415 416 5
415 443 1
416 417 2
416 444 4
417 418 3
417 445 1
418 419 2
418 446 2
419 420 2
419 447 5
420 448 4
421 422 2
421 449 2
422 423 5
422 450 1
423 424 1
423 451 2
424 425 3
424 452 1
425 426 1
425 453 3
426 427 3
426 454 3
427 428 4
427 455 5
428 429 5
428 456 3
429 430 2
429 457 3
430 431 4
430 458 1
431 432 4
431 459 2
432 433 1
432 460 5
433 434 4
433 461 3
434 435 3
434 462 2
435 436 1
435 463 5
436 437 3
436 464 3
437 438 4
437 465 2
438 439 4
438 466 1
439 440 5
439 467 4
440 441 3
440 468 2
441 442 3
441 469 3
442 443 3
442 470 3
443 444 5
443 471 5
444 445 4
444 472 2
445 446 5
445 473 2
446 447 5
446 474 3
447 448 5
447 475 2
448 476 4
449 450 1
449 477 5
450 451 1
450 478 5
451 452 3
451 479 4
452 453 1
452 480 1
453 454 3
453 481 4
454 455 3
454 482 2
455 456 3
455 483 5
456 457 5
456 484 3
457 458 3
457 485 5
458 459 3
458 486 2
459 460 4
459 487 2
460 461 3
460 488 1
461 462 1
461 489 5
462 463 2
462 490 4
463 464 5
463 491 2
464 465 3
464 492 5
465 466 1
465 493 4
466 467 3
466 494 5
467 468 5
467 495 1
468 469 1
468 496 1
469 470 5
469 497 1
470 471 5
470 498 3
471 472 3
471 499 5
472 473 3
472 500 3
473 474 2
473 501 5
474 475 2
474 502 5
475 476 2
475 503 2
476 504 2
477 478 3
477 505 5
478 479 1
478 506 4
479 480 4
479 507 4
480 481 1
480 508 4
481 482 3
481 509 3
482 483 3
482 510 4
483 484 2
483 511 1
484 485 2
484 512 4
485 486 4
485 513 1
486 487 3
486 514 5
487 488 4
487 515 5
488 489 4
488 516 2
489 490 3
489 517 3
490 491 3
490 518 4
491 492 5
491 519 5
492 493 2
492 520 4
493 494 4
493 521 2
494 495 2
494 522 5
495 496 2
495 523 4
496 497 4
496 524 4
497 498 4
497 525 4
498 499 1
498 526 5
499 500 3
499 527 5
500 501 1
500 528 2
501 502 2
501 529 5
502 503 5
502 530 1
503 504 4
503 531 3
504 532 2
505 506 3
505 533 1
506 507 5
506 534 2
507 508 2
507 535 1
508 509 1
508 536 1
509 510 4
509 537 2
510 511 1
510 538 1
511 512 2
511 539 5
512 513 3
512 540 4
513 514 1
513 541 2
514 515 4
514 542 2
515 516 2
515 543 1
516 517 2
516 544 2
517 518 1
517 545 5
518 519 4
518 546 5
519 520 5
519 547 2
520 521 2
520 548 5
521 522 5
521 549 1
522 523 1
522 550 4
523 524 4
523 551 5
524 525 2
524 552 3
525 526 2
525 553 1
526 527 4
526 554 2
527 528 5
527 555 1
528 529 3
528 556 1
529 530 1
529 557 2
530 531 3
530 558 4
531 532 5
531 559 5
532 560 3
533 534 4
533 561 5
534 535 4
534 562 3
535 536 2
535 563 2
536 537 2
536 564 3
537 538 2
537 565 4
538 539 3
538 566 1
539 540 3
539 567 4
540 541 3
540 568 1
541 542 3
541 569 5
542 543 2
542 570 5
543 544 4
543 571 2
544 545 5
544 572 3
545 546 5
545 573 5
546 547 2
546 574 4
547 548 4
547 575 1
548 549 3
548 576 4
549 550 5
549 577 3
550 551 2
550 578 3
551 552 1
551 579 5
552 553 5
552 580 5
553 554 1
553 581 4
554 555 4
554 582 5
555 556 5
555 583 4
556 557 4
556 584 3
557 558 3
557 585 4
558 559 4
558 586 1
559 560 2
559 587 2
560 588 2
561 562 5
561 589 4
562 563 4
562 590 5
563 564 2
563 591 5
564 565 1
564 592 2
565 566 3
565 593 5
566 567 4
566 594 4
567 568 1
567 595 1
568 569 1
568 596 4
569 570 5
569 597 5
570 571 5
570 598 4
571 572 4
571 599 1
572 573 4
572 600 5
573 574 4
573 601 4
574 575 1
574 602 2
575 576 4
575 603 2
576 577 1
576 604 2
577 578 5
577 605 5
578 579 2
578 606 4
579 580 4
579 607 3
580 581 3
580 608 2
581 582 2
581 609 3
582 583 2
582 610 1
583 584 3
583 611 4
584 585 2
584 612 4
585 586 2
585 613 2
586 587 5
586 614 1
587 588 5
587 615 5
588 616 3
589 590 3
589 617 2
590 591 1
590 618 2
591 592 4
591 619 2
592 593 3
592 620 2
593 594 2
593 621 2
594 595 2
594 622 4
595 596 4
595 623 3
596 597 4
596 624 1
597 598 3
597 625 2
598 599 3
598 626 3
599 600 1
599 627 1
600 601 5
600 628 3
601 602 4
601 629 5
602 603 4
602 630 4
603 604 5
603 631 4
604 605 5
604 632 1
605 606 2
605 633 2
606 607 3
606 634 2
607 608 3
607 635 4
608 609 5
608 636 5
609 610 4
609 637 3
610 611 3
610 638 5
611 612 5
611 639 5
612 613 2
612 640 5
613 614 2
613 641 3
614 615 5
614 642 2
615 616 3
615 643 4
616 644 3
617 618 5
617 645 5
618 619 4
618 646 4
619 620 1
619 647 1
620 621 3
620 648 5
621 622 3
621 649 5
622 623 4
622 650 1
623 624 3
623 651 3
624 625 1
624 652 1
625 626 3
625 653 1
626 627 2
626 654 2
627 628 3
627 655 3
628 629 5
628 656 1
629 630 4
629 657 3
630 631 3
630 658 1
631 632 1
631 659 5
632 633 5
632 660 2
633 634 5
633 661 1
634 635 4
634 662 1
635 636 1
635 663 2
636 637 1
636 664 5
637 638 5
637 665 3
638 639 2
638 666 2
639 640 4
639 667 5
640 641 3
640 668 3
641 642 5
641 669 3
642 643 4
642 670 1
643 644 4
643 671 1
644 672 4
645 646 2
645 673 4
646 647 3
646 674 5
647 648 3
647 675 4
648 649 4
648 676 1
649 650 4
649 677 2
650 651 5
650 678 2
651 652 1
651 679 5
652 653 2
652 680 5
653 654 1
653 681 1
654 655 3
654 682 2
655 656 3
655 683 4
656 657 3
656 684 2
657 658 5
657 685 3
658 659 3
658 686 4
659 660 5
659 687 2
660 661 2
660 688 3
661 662 1
661 689 4
662 663 3
662 690 1
663 664 2
663 691 4
664 665 1
664 692 2
665 666 4
665 693 3
666 667 1
666 694 1
667 668 5
667 695 5
668 669 1
668 696 1
669 670 3
669 697 3
670 671 2
670 698 1
671 672 5
671 699 3
672 700 5
673 674 3
673 701 5
674 675 1
674 702 5
675 676 3
675 703 5
676 677 4
676 704 4
677 678 4
677 705 3
678 679 1
678 706 2
679 680 3
679 707 3
680 681 5
680 708 1
681 682 1
681 709 5
682 683 4
682 710 3
683 684 5
683 711 1
684 685 1
684 712 5
685 686 4
685 713 1
686 687 5
686 714 1
687 688 1
687 715 1
688 689 3
688 716 5
689 690 5
689 717 2
690 691 4
690 718 5
691 692 3
691 719 1
692 693 4
692 720 5
693 694 3
693 721 1
694 695 4
694 722 5
695 696 3
695 723 1
696 697 3
696 724 1
697 698 3
697 725 2
698 699 3
698 726 4
699 700 5
699 727 4
700 728 5
701 702 1
701 729 3
702 703 4
702 730 3
703 704 4
703 731 3
704 705 5
704 732 4
705 706 2
705 733 3
706 707 1
706 734 1
707 708 4
707 735 1
708 709 4
708 736 5
709 710 3
709 737 4
710 711 1
710 738 3
711 712 4
711 739 3
712 713 5
712 740 5
713 714 1
713 741 3
714 715 4
714 742 1
715 716 2
715 743 5
716 717 3
716 744 3
717 718 5
717 745 3
718 719 5
718 746 2
719 720 4
719 747 4
720 721 4
720 748 1
721 722 5
721 749 5
722 723 1
722 750 5
723 724 4
723 751 2
724 725 4
724 752 5
725 726 5
725 753 1
726 727 4
726 754 2
727 728 5
727 755 3
728 756 1
729 730 1
729 757 4
730 731 2
730 758 5
731 732 4
731 759 2
732 733 3
732 760 3
733 734 3
733 761 3
734 735 3
734 762 3
735 736 3
735 763 4
736 737 1
736 764 4
737 738 1
737 765 3
738 739 4
738 766 4
739 740 1
739 767 5
740 741 4
740 768 3
741 742 5
741 769 4
742 743 3
742 770 3
743 744 3
743 771 4
744 745 1
744 772 4
745 746 2
745 773 2
746 747 2
746 774 5
747 748 4
747 775 3
748 749 1
748 776 2
749 750 3
749 777 5
750 751 3
750 778 3
751 752 3
751 779 2
752 753 1
752 780 3
753 754 3
753 781 3
754 755 2
754 782 4
755 756 5
755 783 3
756 784 4
757 758 2
758 759 5
759 760 4
760 761 4
761 762 5
762 763 1
763 764 5
764 765 5
765 766 1
766 767 3
767 768 5
768 769 2
769 770 4
770 771 4
771 772 2
772 773 4
773 774 2
774 775 5
775 776 3
776 777 1
777 778 5
778 779 2
779 780 2
780 781 4
781 782 3
782 783 1
783 784 4
1 757 5
2 758 1
3 759 2
4 760 5
5 761 5
6 762 5
7 763 3
8 764 5
9 765 5
10 766 5
11 767 1
12 768 1
13 769 4
14 770 3
15 771 4
16 772 5
17 773 3
18 774 1
19 775 3
20 776 5
21 777 1
22 778 4
23 779 2
24 780 3
25 781 2
26 782 5
27 783 1
28 784 2
1 28 1
29 56 1
57 84 1
85 112 5
113 140 3
141 168 5
169 196 1
197 224 2
225 252 4
253 280 4
281 308 2
309 336 2
337 364 1
365 392 3
393 420 5
421 448 1
449 476 3
477 504 3
505 532 1
533 560 3
561 588 5
589 616 2
617 644 5
645 672 5
673 700 3
701 728 1
729 756 2
757 784 3
